1439.01
0 20 8 12 2 1 15 13 14 11 9 10 4 3 5 7 6 0
0 19 22 27 30 33 34 31 28 25 17 21 23 26 16 24 36 35 32 29 47 0
0 37 38 39 42 41 44 46 49 50 51 45 48 40 43 52 79 0
0 59 57 66 65 61 62 64 63 58 53 55 56 60 54 67 88 0
0 76 73 68 77 80 72 74 71 75 78 70 69 83 81 82 0
0 106 99 100 101 98 97 96 94 90 84 91 95 85 86 89 92 93 87 0
0 117 113 108 118 18 114 109 110 115 112 119 120 116 104 103 107 105 111 102 0
